lps/t__ID000M003J004_ZintTrue_minla_fav.lp
\ This file has been generated by DOcplex
\ ENCODING=ISO-8859-1
\Problem name: minla_fav

Minimize
 obj: cmax
Subject To
 c1: x_1_0 - x_0_0 >= 1
 c2: x_2_0 - x_1_0 >= 3
 c3: x_0_1 - x_1_1 >= 8
 c4: x_2_1 - x_0_1 >= 5
 c5: x_2_2 - x_0_2 >= 5
 c6: x_1_2 - x_2_2 >= 4
 c7: x_0_3 - x_2_3 >= 4
 c8: x_1_3 - x_0_3 >= 10
 c9: x_0_1 - x_0_0 - 66 z_0_0_1 - 5 z_0_0_2 - 10 z_0_0_3 + 5 s_0_2_0_1
     + 10 s_0_3_0_1 >= -65
 c10: x_0_0 - x_0_1 + 66 z_0_0_1 - 5 z_0_1_2 - 10 z_0_1_3 + 5 s_0_2_0_1
      + 10 s_0_3_0_1 >= 5
 c11: x_0_2 - x_0_0 - 66 z_0_0_2 - 10 z_0_0_3 - 5 s_0_1_0_2 + 10 s_0_3_0_2 >= 
      -65
 c12: x_0_0 - x_0_2 + 5 z_0_0_1 + 66 z_0_0_2 + 5 z_0_1_2 - 10 z_0_2_3
      - 5 s_0_1_0_2 + 10 s_0_3_0_2 >= 10
 c13: x_0_3 - x_0_0 - 66 z_0_0_3 - 5 s_0_1_0_3 - 5 s_0_2_0_3 >= -65
 c14: x_0_0 - x_0_3 + 5 z_0_0_1 + 5 z_0_0_2 + 66 z_0_0_3 + 5 z_0_1_3 + 5 z_0_2_3
      - 5 s_0_1_0_3 - 5 s_0_2_0_3 >= 20
 c15: x_0_2 - x_0_1 - z_0_0_2 - 66 z_0_1_2 - 10 z_0_1_3 + s_0_0_1_2
      + 10 s_0_3_1_2 >= -61
 c16: x_0_1 - x_0_2 - z_0_0_1 + 66 z_0_1_2 - 10 z_0_2_3 + s_0_0_1_2
      + 10 s_0_3_1_2 >= 5
 c17: x_0_3 - x_0_1 - z_0_0_3 - 66 z_0_1_3 + s_0_0_1_3 - 5 s_0_2_1_3 >= -61
 c18: x_0_1 - x_0_3 - z_0_0_1 + 5 z_0_1_2 + 66 z_0_1_3 + 5 z_0_2_3 + s_0_0_1_3
      - 5 s_0_2_1_3 >= 15
 c19: x_0_3 - x_0_2 - z_0_0_3 - 5 z_0_1_3 - 66 z_0_2_3 + s_0_0_2_3 + 5 s_0_1_2_3
       >= -61
 c20: x_0_2 - x_0_3 - z_0_0_2 - 5 z_0_1_2 + 66 z_0_2_3 + s_0_0_2_3 + 5 s_0_1_2_3
       >= 10
 c21: x_1_1 - x_1_0 - 66 z_1_0_1 - 8 z_1_0_2 - 6 z_1_0_3 + 8 s_1_2_0_1
      + 6 s_1_3_0_1 >= -63
 c22: x_1_0 - x_1_1 + 66 z_1_0_1 - 8 z_1_1_2 - 6 z_1_1_3 + 8 s_1_2_0_1
      + 6 s_1_3_0_1 >= 8
 c23: x_1_2 - x_1_0 - 66 z_1_0_2 - 6 z_1_0_3 - 8 s_1_1_0_2 + 6 s_1_3_0_2 >= -63
 c24: x_1_0 - x_1_2 + 8 z_1_0_1 + 66 z_1_0_2 + 8 z_1_1_2 - 6 z_1_2_3
      - 8 s_1_1_0_2 + 6 s_1_3_0_2 >= 16
 c25: x_1_3 - x_1_0 - 66 z_1_0_3 - 8 s_1_1_0_3 - 8 s_1_2_0_3 >= -63
 c26: x_1_0 - x_1_3 + 8 z_1_0_1 + 8 z_1_0_2 + 66 z_1_0_3 + 8 z_1_1_3 + 8 z_1_2_3
      - 8 s_1_1_0_3 - 8 s_1_2_0_3 >= 22
 c27: x_1_2 - x_1_1 - 3 z_1_0_2 - 66 z_1_1_2 - 6 z_1_1_3 + 3 s_1_0_1_2
      + 6 s_1_3_1_2 >= -58
 c28: x_1_1 - x_1_2 - 3 z_1_0_1 + 66 z_1_1_2 - 6 z_1_2_3 + 3 s_1_0_1_2
      + 6 s_1_3_1_2 >= 8
 c29: x_1_3 - x_1_1 - 3 z_1_0_3 - 66 z_1_1_3 + 3 s_1_0_1_3 - 8 s_1_2_1_3 >= -58
 c30: x_1_1 - x_1_3 - 3 z_1_0_1 + 8 z_1_1_2 + 66 z_1_1_3 + 8 z_1_2_3
      + 3 s_1_0_1_3 - 8 s_1_2_1_3 >= 14
 c31: x_1_3 - x_1_2 - 3 z_1_0_3 - 8 z_1_1_3 - 66 z_1_2_3 + 3 s_1_0_2_3
      + 8 s_1_1_2_3 >= -58
 c32: x_1_2 - x_1_3 - 3 z_1_0_2 - 8 z_1_1_2 + 66 z_1_2_3 + 3 s_1_0_2_3
      + 8 s_1_1_2_3 >= 6
 c33: x_2_1 - x_2_0 - 66 z_2_0_1 - 4 z_2_0_2 - 4 z_2_0_3 + 4 s_2_2_0_1
      + 4 s_2_3_0_1 >= -64
 c34: x_2_0 - x_2_1 + 66 z_2_0_1 - 4 z_2_1_2 - 4 z_2_1_3 + 4 s_2_2_0_1
      + 4 s_2_3_0_1 >= 10
 c35: x_2_2 - x_2_0 - 66 z_2_0_2 - 4 z_2_0_3 - 10 s_2_1_0_2 + 4 s_2_3_0_2 >= 
      -64
 c36: x_2_0 - x_2_2 + 10 z_2_0_1 + 66 z_2_0_2 + 10 z_2_1_2 - 4 z_2_2_3
      - 10 s_2_1_0_2 + 4 s_2_3_0_2 >= 14
 c37: x_2_3 - x_2_0 - 66 z_2_0_3 - 10 s_2_1_0_3 - 4 s_2_2_0_3 >= -64
 c38: x_2_0 - x_2_3 + 10 z_2_0_1 + 4 z_2_0_2 + 66 z_2_0_3 + 10 z_2_1_3
      + 4 z_2_2_3 - 10 s_2_1_0_3 - 4 s_2_2_0_3 >= 18
 c39: x_2_2 - x_2_1 - 2 z_2_0_2 - 66 z_2_1_2 - 4 z_2_1_3 + 2 s_2_0_1_2
      + 4 s_2_3_1_2 >= -56
 c40: x_2_1 - x_2_2 - 2 z_2_0_1 + 66 z_2_1_2 - 4 z_2_2_3 + 2 s_2_0_1_2
      + 4 s_2_3_1_2 >= 4
 c41: x_2_3 - x_2_1 - 2 z_2_0_3 - 66 z_2_1_3 + 2 s_2_0_1_3 - 4 s_2_2_1_3 >= -56
 c42: x_2_1 - x_2_3 - 2 z_2_0_1 + 4 z_2_1_2 + 66 z_2_1_3 + 4 z_2_2_3
      + 2 s_2_0_1_3 - 4 s_2_2_1_3 >= 8
 c43: x_2_3 - x_2_2 - 2 z_2_0_3 - 10 z_2_1_3 - 66 z_2_2_3 + 2 s_2_0_2_3
      + 10 s_2_1_2_3 >= -62
 c44: x_2_2 - x_2_3 - 2 z_2_0_2 - 10 z_2_1_2 + 66 z_2_2_3 + 2 s_2_0_2_3
      + 10 s_2_1_2_3 >= 4
 c45: s_0_2_0_1 - z_0_0_2 <= 0
 c46: s_0_2_0_1 - z_0_1_2 <= 0
 c47: s_0_2_0_1 - z_0_0_2 - z_0_1_2 >= -1
 c48: s_0_3_0_1 - z_0_0_3 <= 0
 c49: s_0_3_0_1 - z_0_1_3 <= 0
 c50: s_0_3_0_1 - z_0_0_3 - z_0_1_3 >= -1
 c51: s_0_1_0_2 - z_0_0_1 <= 0
 c52: s_0_1_0_2 - z_0_1_2 <= 0
 c53: s_0_1_0_2 - z_0_0_1 - z_0_1_2 >= -1
 c54: s_0_3_0_2 - z_0_0_3 <= 0
 c55: s_0_3_0_2 - z_0_2_3 <= 0
 c56: s_0_3_0_2 - z_0_0_3 - z_0_2_3 >= -1
 c57: s_0_1_0_3 - z_0_0_1 <= 0
 c58: s_0_1_0_3 - z_0_1_3 <= 0
 c59: s_0_1_0_3 - z_0_0_1 - z_0_1_3 >= -1
 c60: s_0_2_0_3 - z_0_0_2 <= 0
 c61: s_0_2_0_3 - z_0_2_3 <= 0
 c62: s_0_2_0_3 - z_0_0_2 - z_0_2_3 >= -1
 c63: s_0_0_1_2 - z_0_0_1 <= 0
 c64: s_0_0_1_2 - z_0_0_2 <= 0
 c65: s_0_0_1_2 - z_0_0_1 - z_0_0_2 >= -1
 c66: s_0_3_1_2 - z_0_1_3 <= 0
 c67: s_0_3_1_2 - z_0_2_3 <= 0
 c68: s_0_3_1_2 - z_0_1_3 - z_0_2_3 >= -1
 c69: s_0_0_1_3 - z_0_0_1 <= 0
 c70: s_0_0_1_3 - z_0_0_3 <= 0
 c71: s_0_0_1_3 - z_0_0_1 - z_0_0_3 >= -1
 c72: s_0_2_1_3 - z_0_1_2 <= 0
 c73: s_0_2_1_3 - z_0_2_3 <= 0
 c74: s_0_2_1_3 - z_0_1_2 - z_0_2_3 >= -1
 c75: s_0_0_2_3 - z_0_0_2 <= 0
 c76: s_0_0_2_3 - z_0_0_3 <= 0
 c77: s_0_0_2_3 - z_0_0_2 - z_0_0_3 >= -1
 c78: s_0_1_2_3 - z_0_1_2 <= 0
 c79: s_0_1_2_3 - z_0_1_3 <= 0
 c80: s_0_1_2_3 - z_0_1_2 - z_0_1_3 >= -1
 c81: s_1_2_0_1 - z_1_0_2 <= 0
 c82: s_1_2_0_1 - z_1_1_2 <= 0
 c83: s_1_2_0_1 - z_1_0_2 - z_1_1_2 >= -1
 c84: s_1_3_0_1 - z_1_0_3 <= 0
 c85: s_1_3_0_1 - z_1_1_3 <= 0
 c86: s_1_3_0_1 - z_1_0_3 - z_1_1_3 >= -1
 c87: s_1_1_0_2 - z_1_0_1 <= 0
 c88: s_1_1_0_2 - z_1_1_2 <= 0
 c89: s_1_1_0_2 - z_1_0_1 - z_1_1_2 >= -1
 c90: s_1_3_0_2 - z_1_0_3 <= 0
 c91: s_1_3_0_2 - z_1_2_3 <= 0
 c92: s_1_3_0_2 - z_1_0_3 - z_1_2_3 >= -1
 c93: s_1_1_0_3 - z_1_0_1 <= 0
 c94: s_1_1_0_3 - z_1_1_3 <= 0
 c95: s_1_1_0_3 - z_1_0_1 - z_1_1_3 >= -1
 c96: s_1_2_0_3 - z_1_0_2 <= 0
 c97: s_1_2_0_3 - z_1_2_3 <= 0
 c98: s_1_2_0_3 - z_1_0_2 - z_1_2_3 >= -1
 c99: s_1_0_1_2 - z_1_0_1 <= 0
 c100: s_1_0_1_2 - z_1_0_2 <= 0
 c101: s_1_0_1_2 - z_1_0_1 - z_1_0_2 >= -1
 c102: s_1_3_1_2 - z_1_1_3 <= 0
 c103: s_1_3_1_2 - z_1_2_3 <= 0
 c104: s_1_3_1_2 - z_1_1_3 - z_1_2_3 >= -1
 c105: s_1_0_1_3 - z_1_0_1 <= 0
 c106: s_1_0_1_3 - z_1_0_3 <= 0
 c107: s_1_0_1_3 - z_1_0_1 - z_1_0_3 >= -1
 c108: s_1_2_1_3 - z_1_1_2 <= 0
 c109: s_1_2_1_3 - z_1_2_3 <= 0
 c110: s_1_2_1_3 - z_1_1_2 - z_1_2_3 >= -1
 c111: s_1_0_2_3 - z_1_0_2 <= 0
 c112: s_1_0_2_3 - z_1_0_3 <= 0
 c113: s_1_0_2_3 - z_1_0_2 - z_1_0_3 >= -1
 c114: s_1_1_2_3 - z_1_1_2 <= 0
 c115: s_1_1_2_3 - z_1_1_3 <= 0
 c116: s_1_1_2_3 - z_1_1_2 - z_1_1_3 >= -1
 c117: s_2_2_0_1 - z_2_0_2 <= 0
 c118: s_2_2_0_1 - z_2_1_2 <= 0
 c119: s_2_2_0_1 - z_2_0_2 - z_2_1_2 >= -1
 c120: s_2_3_0_1 - z_2_0_3 <= 0
 c121: s_2_3_0_1 - z_2_1_3 <= 0
 c122: s_2_3_0_1 - z_2_0_3 - z_2_1_3 >= -1
 c123: s_2_1_0_2 - z_2_0_1 <= 0
 c124: s_2_1_0_2 - z_2_1_2 <= 0
 c125: s_2_1_0_2 - z_2_0_1 - z_2_1_2 >= -1
 c126: s_2_3_0_2 - z_2_0_3 <= 0
 c127: s_2_3_0_2 - z_2_2_3 <= 0
 c128: s_2_3_0_2 - z_2_0_3 - z_2_2_3 >= -1
 c129: s_2_1_0_3 - z_2_0_1 <= 0
 c130: s_2_1_0_3 - z_2_1_3 <= 0
 c131: s_2_1_0_3 - z_2_0_1 - z_2_1_3 >= -1
 c132: s_2_2_0_3 - z_2_0_2 <= 0
 c133: s_2_2_0_3 - z_2_2_3 <= 0
 c134: s_2_2_0_3 - z_2_0_2 - z_2_2_3 >= -1
 c135: s_2_0_1_2 - z_2_0_1 <= 0
 c136: s_2_0_1_2 - z_2_0_2 <= 0
 c137: s_2_0_1_2 - z_2_0_1 - z_2_0_2 >= -1
 c138: s_2_3_1_2 - z_2_1_3 <= 0
 c139: s_2_3_1_2 - z_2_2_3 <= 0
 c140: s_2_3_1_2 - z_2_1_3 - z_2_2_3 >= -1
 c141: s_2_0_1_3 - z_2_0_1 <= 0
 c142: s_2_0_1_3 - z_2_0_3 <= 0
 c143: s_2_0_1_3 - z_2_0_1 - z_2_0_3 >= -1
 c144: s_2_2_1_3 - z_2_1_2 <= 0
 c145: s_2_2_1_3 - z_2_2_3 <= 0
 c146: s_2_2_1_3 - z_2_1_2 - z_2_2_3 >= -1
 c147: s_2_0_2_3 - z_2_0_2 <= 0
 c148: s_2_0_2_3 - z_2_0_3 <= 0
 c149: s_2_0_2_3 - z_2_0_2 - z_2_0_3 >= -1
 c150: s_2_1_2_3 - z_2_1_2 <= 0
 c151: s_2_1_2_3 - z_2_1_3 <= 0
 c152: s_2_1_2_3 - z_2_1_2 - z_2_1_3 >= -1
 c153: x_0_0 + 5 z_0_0_1 + 5 z_0_0_2 + 10 z_0_0_3 >= 20
 c154: x_0_1 - z_0_0_1 + 5 z_0_1_2 + 10 z_0_1_3 >= 15
 c155: x_0_2 - z_0_0_2 - 5 z_0_1_2 + 10 z_0_2_3 >= 10
 c156: x_0_3 - z_0_0_3 - 5 z_0_1_3 - 5 z_0_2_3 >= 0
 c157: x_1_0 + 8 z_1_0_1 + 8 z_1_0_2 + 6 z_1_0_3 >= 22
 c158: x_1_1 - 3 z_1_0_1 + 8 z_1_1_2 + 6 z_1_1_3 >= 14
 c159: x_1_2 - 3 z_1_0_2 - 8 z_1_1_2 + 6 z_1_2_3 >= 6
 c160: x_1_3 - 3 z_1_0_3 - 8 z_1_1_3 - 8 z_1_2_3 >= 0
 c161: x_2_0 + 10 z_2_0_1 + 4 z_2_0_2 + 4 z_2_0_3 >= 18
 c162: x_2_1 - 2 z_2_0_1 + 4 z_2_1_2 + 4 z_2_1_3 >= 8
 c163: x_2_2 - 2 z_2_0_2 - 10 z_2_1_2 + 4 z_2_2_3 >= 4
 c164: x_2_3 - 2 z_2_0_3 - 10 z_2_1_3 - 4 z_2_2_3 >= 0
 c165: x_0_1 - z_0_0_1 >= 0
 c166: x_0_0 + 13 z_0_0_1 >= 13
 c167: x_0_2 - z_0_0_2 >= 0
 c168: x_0_0 + 5 z_0_0_2 >= 5
 c169: x_0_2 - 13 z_0_1_2 >= 0
 c170: x_0_1 + 5 z_0_1_2 >= 5
 c171: x_0_3 - z_0_0_3 >= 0
 c172: x_0_0 + 14 z_0_0_3 >= 14
 c173: x_0_3 - 13 z_0_1_3 >= 0
 c174: x_0_1 + 14 z_0_1_3 >= 14
 c175: x_0_3 - 5 z_0_2_3 >= 0
 c176: x_0_2 + 14 z_0_2_3 >= 14
 c177: x_1_1 - 4 z_1_0_1 >= 0
 c178: x_1_0 + 8 z_1_0_1 >= 8
 c179: x_1_2 - 4 z_1_0_2 >= 0
 c180: x_1_0 + 17 z_1_0_2 >= 17
 c181: x_1_2 - 8 z_1_1_2 >= 0
 c182: x_1_1 + 17 z_1_1_2 >= 17
 c183: x_1_3 - 4 z_1_0_3 >= 0
 c184: x_1_0 + 20 z_1_0_3 >= 20
 c185: x_1_3 - 8 z_1_1_3 >= 0
 c186: x_1_1 + 20 z_1_1_3 >= 20
 c187: x_1_3 - 17 z_1_2_3 >= 0
 c188: x_1_2 + 20 z_1_2_3 >= 20
 c189: x_2_1 - 6 z_2_0_1 >= 0
 c190: x_2_0 + 23 z_2_0_1 >= 23
 c191: x_2_2 - 6 z_2_0_2 >= 0
 c192: x_2_0 + 9 z_2_0_2 >= 9
 c193: x_2_2 - 23 z_2_1_2 >= 0
 c194: x_2_1 + 9 z_2_1_2 >= 9
 c195: x_2_3 - 6 z_2_0_3 >= 0
 c196: x_2_0 + 4 z_2_0_3 >= 4
 c197: x_2_3 - 23 z_2_1_3 >= 0
 c198: x_2_1 + 4 z_2_1_3 >= 4
 c199: x_2_3 - 9 z_2_2_3 >= 0
 c200: x_2_2 + 4 z_2_2_3 >= 4
 c201: cmax - x_0_0 - 15 z_0_0_1 >= 1
 c202: cmax - x_0_1 + 6 z_0_0_1 >= 11
 c203: cmax - x_0_0 - 17 z_0_0_2 >= 1
 c204: cmax - x_0_2 + 6 z_0_0_2 >= 11
 c205: cmax - x_0_0 - 16 z_0_0_3 >= 1
 c206: cmax - x_0_3 + 6 z_0_0_3 >= 16
 c207: cmax - x_0_1 - 17 z_0_1_2 >= 5
 c208: cmax - x_0_2 + 15 z_0_1_2 >= 20
 c209: cmax - x_0_1 - 16 z_0_1_3 >= 5
 c210: cmax - x_0_3 + 15 z_0_1_3 >= 25
 c211: cmax - x_0_2 - 16 z_0_2_3 >= 5
 c212: cmax - x_0_3 + 17 z_0_2_3 >= 27
 c213: cmax - x_1_0 - 23 z_1_0_1 >= 3
 c214: cmax - x_1_1 + 5 z_1_0_1 >= 13
 c215: cmax - x_1_0 - 8 z_1_0_2 >= 3
 c216: cmax - x_1_2 + 5 z_1_0_2 >= 13
 c217: cmax - x_1_0 - 6 z_1_0_3 >= 3
 c218: cmax - x_1_3 + 5 z_1_0_3 >= 11
 c219: cmax - x_1_1 - 8 z_1_1_2 >= 8
 c220: cmax - x_1_2 + 23 z_1_1_2 >= 31
 c221: cmax - x_1_1 - 6 z_1_1_3 >= 8
 c222: cmax - x_1_3 + 23 z_1_1_3 >= 29
 c223: cmax - x_1_2 - 6 z_1_2_3 >= 8
 c224: cmax - x_1_3 + 8 z_1_2_3 >= 14
 c225: cmax - x_2_0 - 10 z_2_0_1 >= 2
 c226: cmax - x_2_1 + 2 z_2_0_1 >= 12
 c227: cmax - x_2_0 - 12 z_2_0_2 >= 2
 c228: cmax - x_2_2 + 2 z_2_0_2 >= 6
 c229: cmax - x_2_0 - 20 z_2_0_3 >= 2
 c230: cmax - x_2_3 + 2 z_2_0_3 >= 6
 c231: cmax - x_2_1 - 12 z_2_1_2 >= 10
 c232: cmax - x_2_2 + 10 z_2_1_2 >= 14
 c233: cmax - x_2_1 - 20 z_2_1_3 >= 10
 c234: cmax - x_2_3 + 10 z_2_1_3 >= 14
 c235: cmax - x_2_2 - 20 z_2_2_3 >= 4
 c236: cmax - x_2_3 + 12 z_2_2_3 >= 16
 c237: cmax - x_0_0 >= 6
 c238: cmax - x_0_1 >= 15
 c239: cmax - x_0_2 >= 17
 c240: cmax - x_0_3 >= 16
 c241: cmax - x_1_0 >= 5
 c242: cmax - x_1_1 >= 23
 c243: cmax - x_1_2 >= 8
 c244: cmax - x_1_3 >= 6
 c245: cmax - x_2_0 >= 2
 c246: cmax - x_2_1 >= 10
 c247: cmax - x_2_2 >= 12
 c248: cmax - x_2_3 >= 20

Bounds
 0 <= z_0_0_1 <= 1
 0 <= z_0_0_2 <= 1
 0 <= z_0_0_3 <= 1
 0 <= z_0_1_2 <= 1
 0 <= z_0_1_3 <= 1
 0 <= z_0_2_3 <= 1
 0 <= z_1_0_1 <= 1
 0 <= z_1_0_2 <= 1
 0 <= z_1_0_3 <= 1
 0 <= z_1_1_2 <= 1
 0 <= z_1_1_3 <= 1
 0 <= z_1_2_3 <= 1
 0 <= z_2_0_1 <= 1
 0 <= z_2_0_2 <= 1
 0 <= z_2_0_3 <= 1
 0 <= z_2_1_2 <= 1
 0 <= z_2_1_3 <= 1
 0 <= z_2_2_3 <= 1
 23 <= cmax
       s_0_2_0_1 <= 1
       s_0_3_0_1 <= 1
       s_0_1_0_2 <= 1
       s_0_3_0_2 <= 1
       s_0_1_0_3 <= 1
       s_0_2_0_3 <= 1
       s_0_0_1_2 <= 1
       s_0_3_1_2 <= 1
       s_0_0_1_3 <= 1
       s_0_2_1_3 <= 1
       s_0_0_2_3 <= 1
       s_0_1_2_3 <= 1
       s_1_2_0_1 <= 1
       s_1_3_0_1 <= 1
       s_1_1_0_2 <= 1
       s_1_3_0_2 <= 1
       s_1_1_0_3 <= 1
       s_1_2_0_3 <= 1
       s_1_0_1_2 <= 1
       s_1_3_1_2 <= 1
       s_1_0_1_3 <= 1
       s_1_2_1_3 <= 1
       s_1_0_2_3 <= 1
       s_1_1_2_3 <= 1
       s_2_2_0_1 <= 1
       s_2_3_0_1 <= 1
       s_2_1_0_2 <= 1
       s_2_3_0_2 <= 1
       s_2_1_0_3 <= 1
       s_2_2_0_3 <= 1
       s_2_0_1_2 <= 1
       s_2_3_1_2 <= 1
       s_2_0_1_3 <= 1
       s_2_2_1_3 <= 1
       s_2_0_2_3 <= 1
       s_2_1_2_3 <= 1

Binaries
 z_0_0_1 z_0_0_2 z_0_0_3 z_0_1_2 z_0_1_3 z_0_2_3 z_1_0_1 z_1_0_2 z_1_0_3 z_1_1_2
 z_1_1_3 z_1_2_3 z_2_0_1 z_2_0_2 z_2_0_3 z_2_1_2 z_2_1_3 z_2_2_3
End
