logs/t__ID000M003J004_ZintTrue_minla_fav.txt
CPXPARAM_TimeLimit                               3600
CPXPARAM_Read_DataCheck                          1
Tried aggregator 1 time.
MIP Presolve eliminated 33 rows and 0 columns.
MIP Presolve modified 36 coefficients.
Reduced MIP has 215 rows, 67 columns, and 694 nonzeros.
Reduced MIP has 18 binaries, 0 generals, 0 SOSs, and 0 indicators.
Presolve time = 0.00 sec. (0.51 ticks)
Found incumbent of value 56.000000 after 0.00 sec. (0.70 ticks)
Probing fixed 0 vars, tightened 1 bounds.
Probing time = 0.00 sec. (0.04 ticks)
Tried aggregator 1 time.
Reduced MIP has 215 rows, 67 columns, and 694 nonzeros.
Reduced MIP has 18 binaries, 0 generals, 0 SOSs, and 0 indicators.
Presolve time = 0.00 sec. (0.35 ticks)
Probing time = 0.00 sec. (0.04 ticks)
MIP emphasis: balance optimality and feasibility.
MIP search method: dynamic search.
Parallel mode: deterministic, using up to 8 threads.
Root relaxation solution time = 0.00 sec. (0.59 ticks)

        Nodes                                         Cuts/
   Node  Left     Objective  IInf  Best Integer    Best Bound    ItCnt     Gap

*     0+    0                           56.0000       29.0000            48.21%
*     0+    0                           51.0000       29.0000            43.14%
      0     0       29.0000     5       51.0000       29.0000       67   43.14%
*     0+    0                           31.0000       29.0000             6.45%
*     0     0      integral     0       29.0000       Cuts: 6       73    0.00%
      0     0        cutoff             29.0000       29.0000       73    0.00%
Elapsed time = 0.00 sec. (3.08 ticks, tree = 0.01 MB, solutions = 4)

Flow cuts applied:  1
Mixed integer rounding cuts applied:  1
Gomory fractional cuts applied:  1

Root node processing (before b&c):
  Real time             =    0.00 sec. (3.09 ticks)
Parallel b&c, 8 threads:
  Real time             =    0.00 sec. (0.00 ticks)
  Sync time (average)   =    0.00 sec.
  Wait time (average)   =    0.00 sec.
                          ------------
Total (root+branch&cut) =    0.00 sec. (3.09 ticks)
